c --- [ banner ] -------------------------------------------------------------
c 
c CaDiCaL Radically Simplified CDCL SAT Solver
c Copyright (c) 2016-2021 A. Biere, M. Fleury, N. Froleyks
c 
c Version 1.5.2 a5f15211db36c3956764e18194dd5bd63bf3b5e6
c g++ (GCC) 9.3.0 -Wall -Wextra -O3 -DNDEBUG
c Fri Oct 21 01:27:37 EDT 2022 Linux gra-login3 3.10.0-1160.66.1.el7.x86_64 x86_64
c 
c --- [ limit ] --------------------------------------------------------------
c 
c setting conflict limit to 200000 conflicts (due to '200000')
c 
c --- [ parsing input ] ------------------------------------------------------
c 
c reading DIMACS file from '33.cubes4426.adj'
c opening file to read '33.cubes4426.adj'
c found 'p cnf 6160 1595479' header
c parsed 1595479 clauses in 19.22 seconds process time
c closing file '33.cubes4426.adj'
c after reading 1457566801 bytes 1390.0 MB
c 
c --- [ options ] ------------------------------------------------------------
c 
c all options are set to their default value
c 
c --- [ solving ] ------------------------------------------------------------
c 
c time measured in process time since initialization
c 
c  seconds    reductions  redundant   irredundant
c          MB     restarts       trail       variables
c            level   conflicts       glue         remaining
c 
c * 19.22 1378  0 0   0    0    0  0% 0 1595422 2384 39%
c { 19.75 1409  0 0   0    0    0  0% 0 1595422 2384 39%
c i 23.04 1500 378 0  12   68   58 32% 18 1595422 2383 39%
c i 23.07 1500 359 0  14   72   61 31% 18 1595422 2382 39%
c i 23.54 1504 326 0  17   82   70 31% 20 1595422 2381 39%
c i 25.12 1516 218 0  24  156  135 29% 24 1595422 2380 39%
c i 25.32 1516 209 0  26  166  143 29% 25 1595422 2379 39%
c i 25.63 1518 196 0  29  179  153 29% 24 1595422 2370 38%
c i 25.69 1518 195 0  30  180  153 29% 24 1595422 2369 38%
c i 26.35 1521 185 0  36  215  184 29% 32 1595422 2368 38%
c i 27.13 1522 141 0  43  298  228 26% 26 1595422 2367 38%
c i 27.13 1522 140 0  43  300  229 26% 26 1595422 2366 38%
c - 30.92 1472 140 1  43  300  229 26% 26 427444 2366 38%
c i 31.40 1473 131 1  43  332  259 27% 27 427444 2365 38%
c i 31.43 1473 130 1  43  337  263 27% 27 427444 2364 38%
c i 31.64 1473 128 1  44  348  271 27% 27 427444 2363 38%
c i 31.87 1473 120 1  46  385  306 27% 27 427444 2362 38%
c i 31.90 1473 120 1  46  386  306 27% 27 427444 2341 38%
c i 33.19 1475 118 1  61  470  383 27% 30 427444 2321 38%
c i 33.46 1475 119 1  66  485  396 27% 30 427444 2320 38%
c 
c  seconds     reductions  redundant   irredundant
c          MB      restarts       trail       variables
c             level   conflicts       glue         remaining
c 
c i 33.53 1475 118 1  67  493  403 27% 30 427444 2319 38%
c i 33.94 1476 114 1  75  526  431 27% 30 427444 2318 38%
c i 34.07 1476 108 1  77  574  468 28% 30 427444 2317 38%
c i 34.27 1476 100 1  77  663  539 28% 30 427444 2316 38%
c i 34.66 1476 92 1  81  779  632 28% 30 427444 2315 38%
c i 34.70 1476 92 1  81  788  640 28% 30 427444 2314 38%
c i 34.71 1476 91 1  81  793  644 28% 30 427444 2313 38%
c i 34.73 1476 91 1  81  799  649 28% 30 427444 2312 38%
c i 34.77 1476 89 1  81  828  671 28% 30 427444 2311 38%
c i 35.02 1476 85 1  82  932  752 28% 30 427444 2310 38%
c i 35.02 1476 85 1  82  934  753 28% 30 427444 2309 37%
c i 35.05 1476 84 1  82  951  763 28% 30 427444 2308 37%
c i 35.08 1476 83 1  82  971  778 28% 29 427444 2307 37%
c i 35.08 1476 83 1  82  972  778 28% 29 427444 2306 37%
c i 35.08 1476 83 1  82  973  778 28% 29 427444 2305 37%
c } 35.13 1476 82 1  82 1000  802 28% 29 427444 2305 37%
c [ 35.13 1476  0 1  82 1000  802  0% 0 427444 2305 37%
c O 35.13 1476 17 1  82 1003  803 19% 7 427444 2305 37%
c i 35.13 1476 17 1  82 1003  803 19% 7 427444 2289 37%
c i 35.20 1476 22 1  82 1022  818 31% 13 427444 2288 37%
c 
c  seconds    reductions  redundant   irredundant
c          MB     restarts       trail       variables
c            level   conflicts       glue         remaining
c 
c i 35.29 1476 34 1  82 1047  837 31% 22 427444 2287 37%
c i 35.34 1476 38 1  82 1076  860 31% 27 427444 2286 37%
c i 35.43 1476 37 1  82 1104  880 31% 27 427444 2285 37%
c i 35.53 1476 32 1  82 1194  953 31% 24 427444 2284 37%
c - 36.48 1534 30 2  82 1278  899 31% 23 351498 2284 37%
c i 36.63 1534 30 2  82 1336  945 31% 24 351498 2283 37%
c i 36.66 1534 30 2  82 1386  982 31% 23 351498 2282 37%
c i 36.69 1534 29 2  82 1412  995 31% 23 351498 2281 37%
c i 36.69 1534 29 2  82 1413  995 31% 23 351498 2280 37%
c i 36.70 1534 28 2  82 1424 1002 31% 23 351498 2279 37%
c i 36.81 1534 27 2  82 1573 1100 31% 22 351498 2278 37%
c i 37.19 1534 25 2  83 2513 1684 31% 21 351498 2277 37%
c - 37.64 1532 25 3  83 2670 1292 31% 21 351477 2277 37%
c ] 38.11 1532 25 3  83 3002 1498 53% 22 351477 2277 37%
c { 38.11 1532 82 3  83 3002 1498 76% 29 351477 2277 37%
c F 38.12 1532 82 3  83 3004 1500 76% 29 351477 2277 37%
c i 38.13 1532 82 3  83 3006 1501 76% 29 351477 2276 37%
c i 38.13 1532 82 3  83 3007 1501 76% 29 351477 2275 37%
c i 38.52 1532 75 3  83 3116 1577 73% 27 351477 2274 37%
c i 38.58 1532 72 3  83 3182 1611 71% 26 351477 2273 37%
c 
c  seconds    reductions  redundant   irredundant
c          MB     restarts       trail       variables
c            level   conflicts       glue         remaining
c 
c i 39.39 1532 48 3  83 4150 2265 60% 21 351477 2272 37%
c i 39.39 1532 48 3  83 4155 2268 60% 21 351477 2271 37%
c i 39.42 1532 48 3  83 4173 2284 59% 21 351477 2270 37%
c i 39.58 1532 48 3  91 4252 2348 59% 21 351477 2269 37%
c i 39.73 1532 48 3  95 4264 2358 59% 21 351477 2268 37%
c i 40.54 1532 50 3 128 4388 2462 58% 22 351477 2267 37%
c i 41.10 1532 51 3 144 4448 2518 57% 22 351477 2266 37%
c - 41.88 1529 51 4 163 4526 1872 57% 23 351444 2266 37%
c i 42.57 1529 52 4 189 4631 1971 57% 23 351444 2265 37%
c i 44.09 1529 55 4 265 4959 2261 55% 25 351444 2264 37%
c p 47.30 1529 56 4 275 5000 6122 55% 26 351422 2208 36%
c d 47.89 1529 56 4 275 5000 5971 55% 26 351282 2206 36%
c # 48.41 1529 47 4 285 6005 6624 54% 24 351282 2206 36%
c - 49.63 1521 44 5 323 6844 2857 53% 23 351282 2206 36%
c } 49.97 1521 43 5 323 7004 2981 53% 23 351282 2206 36%
c [ 49.97 1521 25 5 323 7004 2981 53% 22 351282 2206 36%
c - 51.19 1379 33 6 325 9627 3230 52% 28 351282 2206 36%
c I 51.44 1379 33 6 325 10007 3471 52% 28 351282 2206 36%
c - 57.18 1381 41 7 327 12873 3851 51% 34 351282 2206 36%
c p 62.77 1381 41 7 328 15000 9031 51% 34 351282 2206 36%
c 
c  seconds    reductions   redundant   irredundant
c          MB     restarts        trail       variables
c            level    conflicts       glue         remaining
c 
c ] 62.90 1381 41 7 328 15004 9033 51% 34 351282 2206 36%
c { 62.90 1381 43 7 328 15004 9033 53% 23 351282 2206 36%
c B 63.01 1381 43 7 328 15009 9037 53% 23 351282 2206 36%
c - 67.91 1381 41 8 457 16582 4695 52% 23 351282 2206 36%
c s 69.00 1381 35 8 457 18773 5730 51% 20 349703 2206 36%
c v 74.32 1381 35 8 457 18773 5730 51% 20 349696 2206 36%
c t 74.48 1381 35 8 457 18773 5718 51% 20 349689 2206 36%
c e 75.78 1383 35 8 457 18773 5430 51% 20 347046 845 14%
c s 75.91 1383 35 8 457 18773 5426 51% 20 346142 845 14%
c - 78.84 1383 31 9 459 20758 4859 74% 19 346142 845 14%
c W 79.20 1383 31 9 459 21013 4955 74% 19 346142 845 14%
c - 90.96 1383 30 10 696 25376 5607 72% 18 346142 845 14%
c F 103.20 1383 32 10 984 28014 7595 72% 19 346142 845 14%
c } 109.43 1383 33 10 1200 29409 8765 72% 20 346142 845 14%
c 1 109.43 1383 33 10 1200 29409 8765 72% 20 346142 845 14%
c 
c --- [ writing output ] -----------------------------------------------------
c 
c writing simplified CNF to DIMACS file 'simp/33.cubes4426.adj.simp1'
c * 109.43 1383 33 10 1200 29409 8765 72% 20 346142 845 14%
c opening file to write 'simp/33.cubes4426.adj.simp1'
c writing 'p cnf 6160 346142' header
c closing file 'simp/33.cubes4426.adj.simp1'
c after writing 164424488 bytes 156.8 MB
c wrote 346142 clauses in 1.16 seconds process time
c 
c --- [ writing extension ] --------------------------------------------------
c 
c writing extension stack to 'simp/33.cubes4426.adj.ext1'
c opening file to write 'simp/33.cubes4426.adj.ext1'
c closing file 'simp/33.cubes4426.adj.ext1'
c after writing 88333 bytes 0.1 MB
c wrote 3926 witnesses in 0.00 seconds process time
c 
c --- [ result ] -------------------------------------------------------------
c 
s SATISFIABLE
c 
c --- [ run-time profiling ] -------------------------------------------------
c 
c process time taken by individual solving procedures
c (percentage relative to process time for solving)
c 
c        76.44   84.73% search
c        61.70   68.39% unstable
c        19.22   21.30% parse
c        13.97   15.49% stable
c        13.78   15.27% simplify
c         5.44    6.03% vivify
c         4.28    4.74% probe
c         2.46    2.73% elim
c         0.53    0.59% lucky
c         0.25    0.27% subsume
c         0.24    0.27% walk
c         0.10    0.11% ternary
c   =================================
c        90.21   81.57% solve
c 
c last line shows process time for solving
c (percentage relative to total process time)
c 
c --- [ statistics ] ---------------------------------------------------------
c 
c chronological:              6300        21.42 %  of conflicts
c conflicts:                 29409       325.99    per second
c decisions:                113415      1257.18    per second
c eliminated:                 1361        22.09 %  of all variables
c fixed:                       800        12.99 %  of all variables
c learned:                   28649        97.42 %  per conflict
c learned_lits:            5009466       100.00 %  learned literals
c minimized:                     0         0.00 %  learned literals
c shrunken:                3286017        65.60 %  learned literals
c minishrunken:             310591         6.20 %  learned literals
c propagations:            3742328         0.04 M  per second
c reduced:                   11658        39.64 %  per conflict
c rephased:                      7      4201.29    interval
c restarts:                   1200        24.51    interval
c stabilizing:                   2        34.01 %  of conflicts
c substituted:                  10         0.16 %  of all variables
c subsumed:                  10426         0.31 %  of all clauses
c strengthened:               5412         0.16 %  of all clauses
c ternary:                    2030         0.57 %  of resolved
c vivified:                     19         0.00 %  of all clauses
c walked:                        1     29409.00    interval
c weakened:                   3126         3.02    average size
c 
c seconds are measured in process time for solving
c 
c --- [ resources ] ----------------------------------------------------------
c 
c total process time since initialization:       110.59    seconds
c total real time since initialization:          110.70    seconds
c maximum resident set size of process:         1686.40    MB
c 
c --- [ shutting down ] ------------------------------------------------------
c 
c exit 10
WARNING! DIMACS header mismatch: wrong number of variables.
============================[ Problem Statistics ]=============================
|                                                                             |
|  Number of variables:          6111                                         |
|  Number of clauses:          346142                                         |
|  Parse time:                   2.16 s                                       |
|  Simplification time:          0.06 s                                       |
|                                                                             |
============================[ Search Statistics ]====================================================
| Conflicts |          ORIGINAL         |          LEARNT          | Num Sols |      SUBGRAPHS      |
|           |    Vars  Clauses Literals |    Limit  Clauses Lit/Cl |          | Canonical Noncanon. |
=====================================================================================================
|       156 |    6019   346198 35414990 |     2000      156     54 |        0 |        44        56 |
|      1257 |    6019   347149 35432711 |     2000     1257     24 |        0 |       358      1007 |
|      1540 |    6019   347207 35433769 |     2000     1540     32 |        0 |       387      1065 |
|      1878 |    6019   347208 35433791 |     2000     1878     46 |        0 |       397      1066 |
|      2534 |    6019   347358 35435776 |     3601     1535     36 |        0 |       419      1216 |
|      3332 |    6019   347397 35436585 |     3601     2333     61 |        0 |       431      1255 |
|      4664 |    6019   347590 35440107 |     5004     1868     23 |        0 |       493      1448 |
|      6402 |    6019   347620 35440953 |     5004     3606     59 |        0 |       531      1478 |
|      9763 |    6019   348419 35458614 |     6306     4469     44 |        0 |       861      2277 |
|     18250 |    6019   353062 35547488 |     8786     6036     40 |        0 |      2236      6920 |
|     34336 |    6019   363382 35731076 |    12405     7141     30 |        0 |      4328     17240 |
|     48723 |    6019   369120 35833344 |    14812     8535     33 |        0 |      5180     22978 |
|     72575 |    6019   379998 36008415 |    17207    16982     46 |        0 |      6956     33856 |
|     94162 |    6019   382124 36045217 |    20819    10981     24 |        0 |      7966     35982 |
|    130650 |    6019   389420 36171941 |    24408    14458     30 |        1 |      9348     43277 |
|    180091 |    6019   395072 36276135 |    28010    25501     56 |        1 |     10564     48929 |
|    280792 |    6019   430089 36853723 |    35213    33205     41 |        1 |     15457     83946 |
|    394076 |    6019   444847 37118300 |    42415    31891     46 |        2 |     18725     98703 |
|    543822 |    6019   446804 37161143 |    49619    45441     61 |        2 |     20068    100660 |
|    774496 |    6019   455795 37332604 |    60418    31314     25 |        6 |     22449    109647 |
|   1227456 |    6019   576230 38986365 |    76026    44882     38 |        6 |     33933    230082 |
|   1897665 |    6018   747634 41569517 |    94023    82088     52 |        6 |     52197    401503 |
=====================================================================================================
Number of solutions   : 6
Canonical subgraphs   : 62320          (17 /sec)
          order  3    : 1              (142857 /sec)
          order  4    : 1              (500000 /sec)
          order  5    : 1              (250000 /sec)
          order  6    : 1              (55556 /sec)
          order  7    : 1              (8850 /sec)
          order  8    : 2              (1362 /sec)
          order  9    : 6              (315 /sec)
          order 10    : 23             (90 /sec)
          order 11    : 99             (29 /sec)
          order 12    : 589            (20 /sec)
          order 13    : 2748           (21 /sec)
          order 14    : 17078          (22 /sec)
          order 15    : 28171          (19 /sec)
          order 16    : 7379           (12 /sec)
          order 17    : 3833           (11 /sec)
          order 18    : 1903           (9 /sec)
          order 19    : 366            (9 /sec)
          order 20    : 65             (11 /sec)
          order 21    : 47             (11 /sec)
          order 22    : 6              (1 /sec)
Noncanonical subgraphs: 506717         (129 /sec)
          order  3    : 0              (-nan /sec)
          order  4    : 0              (-nan /sec)
          order  5    : 0              (-nan /sec)
          order  6    : 0              (-nan /sec)
          order  7    : 0              (-nan /sec)
          order  8    : 0              (-nan /sec)
          order  9    : 0              (-nan /sec)
          order 10    : 0              (-nan /sec)
          order 11    : 0              (-nan /sec)
          order 12    : 0              (-nan /sec)
          order 13    : 6442           (6529 /sec)
          order 14    : 68717          (988 /sec)
          order 15    : 27387          (1302 /sec)
          order 16    : 398144         (106 /sec)
          order 17    : 4779           (75 /sec)
          order 18    : 1205           (57 /sec)
          order 19    : 0              (-nan /sec)
          order 20    : 0              (-nan /sec)
          order 21    : 0              (-nan /sec)
Canonicity checking   : 3688.91 s
Noncanonicity checking: 3943.05 s
Total canonicity time : 7631.96 s
database reductions   : 85
restarts              : 4095
conflicts             : 2317353        (267 /sec)
decisions             : 3371349        (0.00 % random) (389 /sec)
propagations          : 101673889      (11734 /sec)
conflict literals     : 214565998      (54.62 % deleted)
actual reward         : 0.268063
Memory used           : 622.00 MB
CPU time              : 8664.63 s

UNSATISFIABLE
